\ This file has been generated by DOcplex
\ ENCODING=ISO-8859-1
\Problem name: Turbo

Maximize
 obj: 9 T_0_0 + 9 T_0_1 + 9 T_0_2 + 9 T_0_3 + 9 T_0_4 + 7 T_1_0 + 7 T_1_1
      + 7 T_1_2 + 7 T_1_3 + 7 T_1_4 + 13 T_2_0 + 13 T_2_1 + 13 T_2_2 + 13 T_2_3
      + 13 T_2_4
Subject To
 Type_1: T_0_0 + T_0_1 + T_0_2 + T_0_3 + T_0_4 <= 4
 Type_2: T_1_0 + T_1_1 + T_1_2 + T_1_3 + T_1_4 <= 7
 Type_3: T_2_0 + T_2_1 + T_2_2 + T_2_3 + T_2_4 <= 2
 Dist_1: T_0_0 + T_1_0 + T_2_0 <= 5
 Dist_2: T_0_1 + T_1_1 + T_2_1 <= 3
 Dist_3: T_0_2 + T_1_2 + T_2_2 <= 10
 Dist_4: T_0_3 + T_1_3 + T_2_3 <= 2
 Dist_5: T_0_4 + T_1_4 + T_2_4 <= 4
 Sum_1: 9 T_0_0 + 7 T_1_0 + 13 T_2_0 <= 150
 Sum_2: 9 T_0_1 + 7 T_1_1 + 13 T_2_1 <= 200
 Sum_3: 9 T_0_2 + 7 T_1_2 + 13 T_2_2 <= 350
 Sum_4: 9 T_0_3 + 7 T_1_3 + 13 T_2_3 <= 40
 Sum_5: 9 T_0_4 + 7 T_1_4 + 13 T_2_4 <= 120

Bounds

Generals
 T_0_0 T_0_1 T_0_2 T_0_3 T_0_4 T_1_0 T_1_1 T_1_2 T_1_3 T_1_4 T_2_0 T_2_1 T_2_2
 T_2_3 T_2_4
End
